p cnf 7230 18
1640 3998 4016 4044 4118 -4658 0
-1640 -4659 0
-3998 -4659 0
-4016 -4659 0
-2190 -3992 4656 0
2190 -4657 0
-4044 -4659 0
4658 4659 0
-4656 4657 0
3992 -4657 0
-4118 -4659 0
-4654 4655 0
4654 -4655 0
-4122 -4661 0
-4056 -4661 0
-4024 -4661 0
-4000 -4661 0
-1642 -4661 0
